14
Coordinates from ORCA-job P2_13Cyclohexadiene_opt E -233.350958981143
  C           1.41990856817001      0.06509838602539     -0.11172310267118
  H           2.50019530191726      0.19481387712848     -0.11078605100742
  C           0.72766981188112      0.10893696559372     -1.25495198318090
  H           1.22906317277662      0.28761535240237     -2.20337969205529
  C          -0.72764389778497     -0.10901640871015     -1.25493581089990
  H          -1.22904153893183     -0.28773152880938     -2.20335526632101
  C          -1.41989531606971     -0.06503214944849     -0.11172068302296
  H          -2.50019526692619     -0.19464383016332     -0.11080268139879
  C          -0.72592998174381      0.24544783972664      1.19246703017738
  H          -0.74727847812032      1.33634501775907      1.34549561057453
  H          -1.26919491312792     -0.19465869900331      2.03601797687268
  C           0.72592369651345     -0.24538370712908      1.19243547161558
  H           0.74720445680572     -1.33629866272569      1.34539584060829
  H           1.26920638464055      0.19450354735375      2.03609234070898
