12
Coordinates from ORCA-job C4H8_diradical E -157.062192818746
  C          -2.21841059840418      1.28738902583014     -0.35491871256180
  C          -0.99620344700496      2.11202772518124     -0.15403087822395
  C           0.23216296760253      1.28452702339227      0.23000796211319
  C           1.45386568303669      2.10959459805968      0.43243662595967
  H          -3.17729648317940      1.75171243144815     -0.56408297084997
  H          -2.16824383169079      0.20203651260553     -0.35210694352835
  H           1.39159836594619      3.19218338468092      0.50203514336492
  H           2.42088707210878      1.64441101306258      0.59773305919478
  H          -0.76605931903429      2.68858005236326     -1.06707083783859
  H          -1.17431255537840      2.87454135199131      0.62209151089989
  H           0.00005930826630      0.70829647532066      1.14329827835255
  H           0.41207283773153      0.52270040606424     -0.54554223688233
