15
Coordinates from ORCA-job C5H10_diradical E -196.365702220434
  C          -2.76495442816347      1.42628944795307      1.74081501485191
  C          -1.97701199866932      1.83846781486151      0.54553378270626
  C          -0.85292549500058      0.86196791313529      0.19284064770288
  C          -0.07137972780295      1.27627030360845     -1.05581255411346
  C           1.05289316043900      0.35559080400886     -1.38404203835802
  H          -3.38147253836709      2.13943043643284      2.27943202313548
  H          -2.85282833803434      0.37625766434097      2.00774843145782
  H          -1.55715002277347      2.84369813209128      0.70086769012132
  H          -2.64373349201477      1.93945680084121     -0.33123332839900
  H          -1.27637721469129     -0.14016761532120      0.04041372128305
  H          -0.16318109546100      0.78076634514584      1.04396954579833
  H           0.31335816621324      2.30246449148417     -0.90526976274128
  H          -0.75684955063576      1.35227196337318     -1.91304532390738
  H           1.55456608763125     -0.20386433373583     -0.59864937992801
  H           1.49059648733054      0.33736983178033     -2.37745846960988
