16
Coordinates from ORCA-job trans_int E -234.460565376486
  C          -1.39900551803177     -0.62623316330545     -2.00019113776372
  C          -1.65384922401169      0.21875580941131     -0.80044346245975
  H          -0.80868068847427     -0.23612215304631     -2.82623713463914
  H          -1.88733053478642     -1.58581934824095     -2.13597612816208
  H          -2.07729067435542     -0.38770891117586      0.00964590440718
  H          -2.41224765627549      0.98547490280356     -1.03621746208623
  C          -0.39091761707356      0.94627651825033     -0.29350625082566
  C           0.64019637626607      0.00707723219807      0.24612277793738
  C           1.27089439323747      0.15325139493932      1.47268731122961
  C           2.22909432484216     -0.70904009604375      1.97183571615255
  H          -0.66635815331576      1.67873293683672      0.47589233441923
  H           0.02752648429266      1.52100565105304     -1.13548694768129
  H           0.90129461817611     -0.85006955991333     -0.37667924502122
  H           0.98765839741796      1.01184005206036      2.08464144668689
  H           2.68985347975037     -0.54906032190748      2.94114253553488
  H           2.54916199234159     -1.57836094371956      1.40276974227138


