18
Coordinates from ORCA-job C6H12_diradical E -235.669639290620
  C          -0.12735979642629      3.20990877742667      0.66953620685421
  C          -0.48977558814230      2.71472068592817     -0.68811558636415
  C          -0.45919317101581      1.18866761964660     -0.80702160617407
  C          -0.86748422858609      0.68795267918031     -2.19036211385424
  C          -0.83752384233324     -0.83814595538830     -2.30894735668195
  C          -1.19986010134795     -1.33348215372145     -3.66655683198339
  H           0.18082737904278      4.23908548790822      0.82672617070840
  H          -0.31188117500374      2.59604197677163      1.54743764108022
  H           0.18120463405101      3.15676325504946     -1.43958583098371
  H          -1.50092836422245      3.06794534970267     -0.96353587571615
  H          -1.12926728552390      0.75668412850177     -0.04937858041732
  H           0.55067184481839      0.82808509956399     -0.56700292177826
  H          -0.19702058079837      1.11948263371652     -2.94791536581790
  H          -1.87716407652060      1.04888359667914     -2.43063967811123
  H          -1.50887180461215     -1.27967962409088     -1.55750223370929
  H           0.17339187523328     -1.19179251140166     -2.03319890050370
  H          -1.50898834473380     -2.36239563875332     -3.82358327014946
  H          -1.01591737387877     -0.71954540671956     -4.54452386639802
