20
Coordinates from ORCA-job stepwise_int1_opt E -311.858579968652
  C          -1.47324902687762     -0.14965826248013     -1.44019141910385
  C          -1.96351599795021     -0.44913476131382     -2.82214065561761
  C          -1.73294540620671     -1.63775075971066     -3.50952240867658
  C          -1.04821157409701     -2.73759964347395     -3.03112982853441
  H          -1.37927605629225     -1.06950616591689     -0.85126829544360
  H          -2.20263203628733      0.48253590633005     -0.91682748493394
  H          -2.48580746599794      0.35043928589947     -3.34506494316699
  H          -2.13086900222208     -1.70086023185357     -4.52226313334586
  H          -0.92210898945737     -3.62573904466006     -3.64176099464692
  H          -0.61443311276263     -2.75997966591771     -2.03525829240894
  C          -0.10570860640106      0.57852094910059     -1.44803894744052
  C           0.37124310711586      0.90949361764731     -0.07080270002271
  C           1.53473112565562      0.41367107109311      0.49866211051444
  C           1.96751166727416      0.70154986168554      1.77961065231483
  H           0.62958032906595     -0.05120201066427     -1.96479148205040
  H          -0.20780701303212      1.49729963258731     -2.04419391191828
  H          -0.25988258380966      1.56598623701854      0.53092293762136
  H           2.15221768177107     -0.24471884386343     -0.11509738242183
  H           2.89177578231204      0.29232328817596      2.17398110309593
  H           1.38891086771838      1.35156918342982      2.43134151417186


