9
Properties=species:S:1:pos:R:3 pbc="F F F"
H        0.92580700       0.80982399       0.81772798
C        0.72176099      -0.00268100       0.10526900
N        1.62608695      -0.68953001      -0.45198300
C       -0.73785800      -0.26545799      -0.15992400
O       -1.49149704       0.93761802      -0.29204401
H        2.55654907      -0.40136901      -0.14708000
H       -1.13879502      -0.89853698       0.64384103
H       -0.83489603      -0.81322098      -1.09582400
H       -1.62715805       1.32335401       0.58001697
