23
Properties=species:S:1:pos:R:3 pbc="F F F"
C       -0.09241000       1.52430105       0.09237500
C        0.02493900      -0.00706400       0.01845600
C        0.81524998      -0.54553002       1.22328401
O       -1.29388106      -0.58273798       0.02747800
C        0.67464697      -0.43252301      -1.27693295
C        0.15281600      -1.24772406      -2.19274712
C        1.05525601      -1.42466104      -3.38755798
C        2.40101600      -0.83908403      -2.89802003
C        2.03065205       0.08937500      -1.71846604
H        0.88747197       2.00442600       0.07571600
H       -0.67944998       1.89607096      -0.74817699
H       -0.59119099       1.81956398       1.01997006
H        0.33186400      -0.24558300       2.15809798
H        0.85426301      -1.63452697       1.18623996
H        1.83531106      -0.15866700       1.24162602
H       -1.70610702      -0.36550999       0.87114602
H       -0.82585198      -1.69970000      -2.11347604
H        1.14428496      -2.46731305      -3.70431995
H        0.66283500      -0.87277800      -4.25106621
H        3.03560090      -1.64980400      -2.53319311
H        2.95331311      -0.32233000      -3.68404603
H        1.94954801       1.13400400      -2.04274988
H        2.78348708       0.07021500      -0.92593700
