13
Properties=species:S:1:pos:R:3 pbc="F F F"
C       -0.51376700      -1.43522596      -0.15554300
C       -0.38957801       0.06607900      -0.16589101
C       -1.47070396       0.81388599      -0.35585901
Br      -1.51887500       2.73250508      -0.39053601
C        0.98577499       0.61583102       0.08679800
O        1.91649604      -0.08195300      -0.74731302
H        0.12028900      -1.87035894      -0.92940199
H       -1.54288101      -1.75495994      -0.31851301
H       -0.17319600      -1.83932495       0.80290997
H       -2.45779395       0.40158600      -0.50070202
H        1.23038495       0.45531401       1.14731598
H        1.00899696       1.68959105      -0.10917000
H        2.80485296       0.20703100      -0.51489502
