9
Properties=species:S:1:pos:R:3 pbc="F F F"
C       -1.11847496       0.12098500      -0.06792300
N        0.17990400      -0.51683199       0.07217200
C        1.35450494       0.16421200       0.04399100
O        1.47296202       1.36447096      -0.09819100
H       -1.73380804      -0.04128000       0.82005697
H       -1.65010405      -0.25826401      -0.94371802
H       -0.95183003       1.18871903      -0.19137600
H        0.22310400      -1.51543200       0.19719400
H        2.22374392      -0.50657898       0.16779201
