15
Properties=species:S:1:pos:R:3 pbc="F F F"
C        2.16997194      -0.23021600      -0.35788199
C        0.67853999      -0.16700201      -0.26879600
N       -0.08440300      -0.59690899      -1.19098902
C       -1.48746896      -0.42788899      -0.78456801
C       -1.48470700       0.48571599       0.46562499
C       -0.03034500       0.38495201       0.95818198
H        2.58120704      -0.81285298       0.47227800
H        2.47500110      -0.68578202      -1.29830599
H        2.60456491       0.77137601      -0.28659400
H       -2.06380510      -0.01707400      -1.61545205
H       -1.90270102      -1.41873002      -0.57191700
H       -1.71568501       1.51395702       0.18085200
H       -2.21452403       0.18019301       1.21543896
H        0.39035800       1.33710003       1.28962600
H        0.08399600      -0.31683999       1.79250205
