12
Properties=species:S:1:pos:R:3 pbc="F F F"
C       -1.30444300       0.42206699      -0.11608400
C       -0.04536200       1.22803903      -0.16491599
C        1.09433103       0.54762501      -0.19964200
C        0.98366201      -0.94395500      -0.18574899
S       -0.80070102      -1.35321605       0.23507200
O       -0.86314797      -1.53496504       1.74716699
H       -1.97916102       0.69078302       0.69857299
H       -1.86215401       0.44200799      -1.05692005
H       -0.09033200       2.31090689      -0.16560100
H        2.06815600       1.02226698      -0.23137499
H        1.57607698      -1.43166995       0.59032398
H        1.22307396      -1.39988995      -1.15084898
