10
Properties=species:S:1:pos:R:3 pbc="F F F"
O        1.16777897      -0.89030200      -1.25617802
C        0.41150200      -0.22757900      -0.58821201
C       -1.09936702      -0.18960400      -0.73696297
O       -1.75049996       0.89840400      -0.12803601
O        0.83241600       0.53562301       0.44126400
O        2.26022410       0.43908000       0.62122101
H       -1.46419001      -1.16027904      -0.37366799
H       -1.31035602      -0.14218800      -1.80473304
H       -1.54087603       0.91599101       0.81303799
H        2.49336791      -0.17914400      -0.10956100
