16
Properties=species:S:1:pos:R:3 pbc="F F F"
C        0.00529800       1.45629096       0.33657601
O        1.10279095       1.94193399      -0.45041901
C        1.92151499       0.87139702      -0.85303098
C        2.47301412       1.09683096      -2.28005290
N        3.89603996       1.41885900      -2.12473011
C        4.14778614       1.25837195      -0.89714402
O        3.15694594       0.86392200      -0.05318800
C        1.12865603      -0.36265901      -0.53379297
C        0.04871900      -0.03121100       0.15931299
H        0.12801200       1.75072205       1.38556099
H       -0.91335303       1.91284096      -0.04172500
H        2.36337495       0.20546100      -2.90165401
H        1.93788004       1.91680300      -2.75861001
H        5.11279392       1.40191495      -0.42759100
H        1.46355796      -1.35256803      -0.80602199
H       -0.69360602      -0.70098102       0.57006598
