20
Properties=species:S:1:pos:R:3 pbc="F F F"
C       -0.08222900       1.57996798       0.13231000
C       -0.04856000       0.06875500      -0.07159700
C        0.68636501      -0.40200499      -1.29868305
N        1.25014496       0.46351501      -2.04567409
O        1.90975201      -0.14501500      -3.14464688
C        0.79530799      -1.87038100      -1.55993903
O       -0.10602000      -2.73330808      -0.85375899
C       -0.22933599      -2.64183497      -2.28351092
C       -1.48835695      -2.04546404      -2.84532309
H        0.92316097       1.99282002       0.21990900
H       -0.56901002       2.08343697      -0.70387697
H       -0.63286000       1.81890595       1.04405499
H        0.41126901      -0.42379999       0.79278398
H       -1.06318104      -0.33873600      -0.10830700
H        2.30025005       0.61379898      -3.59201288
H        1.81935799      -2.23287797      -1.61710405
H        0.12350900      -3.53345299      -2.79885697
H       -1.77885604      -1.13735402      -2.31827307
H       -1.34164703      -1.79866898      -3.89946699
H       -2.30973101      -2.76215696      -2.77552700
