18
Properties=species:S:1:pos:R:3 pbc="F F F"
O       -0.06964200       1.28387904      -0.77280802
C        0.02847100       0.20152700       0.14672799
C       -1.29503703      -0.49638200       0.30681100
O       -1.69267499      -1.36886203      -0.77269298
C       -1.47751105      -1.93877900       0.52898598
C       -0.37082100      -2.95353198       0.66320199
C       -0.76539099      -4.27637815      -0.02468400
C        0.26551601      -5.30040312       0.10508900
N        1.09042096      -6.09527683       0.22000299
H       -0.32587299       0.92263502      -1.63004899
H        0.80711502      -0.50263500      -0.16045401
H        0.32545200       0.64363098       1.09996200
H       -2.09531903       0.16102301       0.64154398
H       -2.40580797      -2.23030591       1.02088106
H        0.55422300      -2.58564997       0.22167800
H       -0.17870300      -3.13420391       1.72424304
H       -1.69410098      -4.66744184       0.40040901
H       -0.94966900      -4.09770918      -1.08674896
