17
Properties=species:S:1:pos:R:3 pbc="F F F"
C       -0.04281300       1.52995598      -0.28234801
N       -0.10146300       0.06663500      -0.24440899
C       -0.23723599      -0.53657103       1.07741404
C       -1.38880301      -0.50395298       0.13548900
C        1.36104703       2.01758599      -0.12365900
N        1.88488805       2.28836298       1.06155705
N        3.15055609       2.65155911       0.74619299
C        3.33024502       2.59378195      -0.58940703
N        2.22057009       2.19738007      -1.17091703
H       -0.41290900       1.85500395      -1.25590098
H       -0.66650599       1.98980904       0.49886599
H        0.31950301      -1.45318997       1.23207104
H       -0.27302000       0.12843500       1.93549204
H       -2.19959211       0.18165600       0.36946899
H       -1.68696404      -1.39488399      -0.40459800
H        3.79261899       2.92692399       1.47167099
H        4.25832081       2.84651709      -1.07714295
