9
Properties=species:S:1:pos:R:3 pbc="F F F"
C        1.46888804      -0.03338500       0.51638597
C        0.54934698      -0.24437900      -0.42618299
Si      -1.26593101       0.08654500      -0.15440699
F       -1.77855694       1.24822199      -1.18838406
H        2.52111197      -0.24736300       0.35679400
H        1.21184802       0.36414599       1.49379206
H        0.87316501      -0.64199197      -1.38597095
H       -2.09519696      -1.11108601      -0.44090199
H       -1.48467505       0.57929200       1.22887504
