10
Properties=species:S:1:pos:R:3 pbc="F F F"
C        1.96075201      -0.04111700       0.10660200
C        0.63323998       0.00303300       0.01745800
N       -0.16939700       1.07104194      -0.39041999
C       -1.36997795       0.63512403      -0.36421099
N       -1.49535894      -0.71122497      -0.05450700
O       -0.17554399      -1.10196602       0.33185601
H        2.47075605      -0.93345201       0.43448901
H        2.52937198       0.83651298      -0.15524700
H       -2.25115609       1.20748603      -0.62156999
H       -2.13268709      -0.96543801       0.69555098
