17
Coordinates from ORCA-job P8_Norbornene_opt E -272.660354331786
  C           0.24706529696402      1.12319734153870      0.22246172737441
  C           0.78694802305884     -0.00000087951909      1.12733542510414
  H           1.87869090419241      0.00001015674257      1.20188864750596
  C           0.24707235086057     -1.12318988232491      0.22243625781783
  H           0.34417004503397     -0.00006058565601      2.13124881658348
  C           0.78508830815835     -0.66767466317717     -1.12290234777382
  H           0.47568303960897     -2.15201662826188      0.51163836915533
  H          -1.75458753594699      1.17438808137746      1.12225590453890
  H           1.00980987457259     -1.32638276040675     -1.95648797119871
  C           0.78510337314928      0.66769805519152     -1.12287883776877
  H          -1.75446076887032     -1.17433926885915      1.12237220113886
  C          -1.27295273495443     -0.77702513647210      0.22170821914771
  H          -1.78632069962444      1.20274519860631     -0.64572598134796
  H           0.47570606396038      2.15201864557754      0.51165750996973
  H           1.00990612050921      1.32643599684328     -1.95641845992653
  H          -1.78641645378666     -1.20282801525452     -0.64559347134532
  C          -1.27296420688575      0.77702434405420      0.22168199102477
